# Objective value = 1281.68
I_0_0 510
I_0_1 6.4499999999999989e+02
I_0_2 568
I_0_3 6.4499999999999989e+02
I_1_0 58
I_1_1 5.8000000000000064e+01
I_1_2 0
I_1_3 58
I_2_0 11
I_2_1 0
I_2_2 11
I_2_3 0
I_3_0 130
I_3_1 65
I_3_2 1.3000000000000003e+02
I_3_3 6.5000000000000028e+01
I_4_0 48
I_4_1 24
I_4_2 48
I_4_3 2.4000000000000004e+01
I_5_0 70
I_5_1 35
I_5_2 70
I_5_3 35
q_1_0 5.8000000000000064e+01
q_1_1 -6.3948846218409017e-14
q_1_2 116
q_2_0 0
q_2_1 22
q_2_2 0
q_3_0 0
q_3_1 1.3000000000000003e+02
q_3_2 0
q_4_0 0
q_4_1 48
q_4_2 0
q_5_0 0
q_5_1 70
q_5_2 0
y_0_0 1.0000000000000011e+00
y_0_1 1
y_0_2 1
y_1_0 1.0000000000000011e+00
y_1_1 0
y_1_2 1
y_2_0 0
y_2_1 1
y_2_2 0
y_3_0 0
y_3_1 1.0000000000000002e+00
y_3_2 0
y_4_0 0
y_4_1 1
y_4_2 0
y_5_0 0
y_5_1 1
y_5_2 0
x_0_1_0 2.0000000000000022e+00
x_0_1_1 0
x_0_1_2 2
x_0_2_0 0
x_0_2_1 0
x_0_2_2 0
x_0_3_0 0
x_0_3_1 1.0000000000000002e+00
x_0_3_2 0
x_0_4_0 0
x_0_4_1 1
x_0_4_2 0
x_0_5_0 0
x_0_5_1 0
x_0_5_2 0
x_1_2_0 0
x_1_2_1 0
x_1_2_2 0
x_1_3_0 0
x_1_3_1 0
x_1_3_2 0
x_1_4_0 0
x_1_4_1 0
x_1_4_2 0
x_1_5_0 0
x_1_5_1 0
x_1_5_2 0
x_2_3_0 0
x_2_3_1 1.0000000000000002e+00
x_2_3_2 0
x_2_4_0 0
x_2_4_1 0
x_2_4_2 0
x_2_5_0 0
x_2_5_1 1
x_2_5_2 0
x_3_4_0 0
x_3_4_1 0
x_3_4_2 0
x_3_5_0 0
x_3_5_1 0
x_3_5_2 0
x_4_5_0 0
x_4_5_1 1
x_4_5_2 0
